105254.57
26 7 2 133 121 117 109 104 99 87 83 69 75 94 95 74 68 84 86 73 72 85 97 96 98 105 107 106 119 131 130 132 120 118 108 129 128 6 27 17 15 3 5 4 16 29 28 30 37 39 38 50 63 62 67 61 51 49 40 41 60 66 52 48 36 31 18 25 42 53 59 58 65 54 57 56 64 55 46 34 45 44 47 43 35 32 23 22 33 21 12 0 135 123 114 102 113 112 100 91 90 101 89 80 71 79 78 70 81 88 77 76 82 93 92 103 115 122 111 110 116 127 126 134 125 124 11 10 1 9 13 20 24 8 19 14